# Solution for model GasLib-40
# Objective value = 1.0616367684758607e+01
loadshed[innode_1] 0
loadshed[innode_2] 0
loadshed[innode_3] 0
loadshed[innode_4] 0
loadshed[innode_5] 0
loadshed[innode_6] 0
loadshed[innode_7] 0
loadshed[innode_8] 0
loadshed[source_1] -2.8764341606439281e-01
loadshed[source_2] 0.0985406511431367
loadshed[source_3] 0.256256595213571
loadshed[sink_1] 0
loadshed[sink_2] 0
loadshed[sink_3] 0
loadshed[sink_4] 0
loadshed[sink_5] 0
loadshed[sink_6] 0
loadshed[sink_7] 0
loadshed[sink_8] 0
loadshed[sink_9] 0
loadshed[sink_10] 0
loadshed[sink_11] 0
loadshed[sink_12] 0.649153692826004
loadshed[sink_13] 0
loadshed[sink_14] 0
loadshed[sink_15] 0
loadshed[sink_16] 0
loadshed[sink_17] 0
loadshed[sink_18] 0
loadshed[sink_19] 0
loadshed[sink_20] 0
loadshed[sink_21] 0
loadshed[sink_22] 0
loadshed[sink_23] 0
loadshed[sink_24] 0
loadshed[sink_25] 0
loadshed[sink_26] 0
loadshed[sink_27] 0
loadshed[sink_28] 0
loadshed[sink_29] 0
flow[source_1,sink_3] 2.0356390532434654e+02
flow[innode_1,sink_16] 1.6354166666666970e+01
flow[innode_6,sink_13] -3.0994347914093510e+00
flow[sink_13,sink_14] -1.9453601458076019e+01
flow[sink_14,sink_10] -3.5807768124742665e+01
flow[sink_25,sink_26] 1.7583223137974051e+02
flow[sink_26,sink_9] 1.2184205606565521e+02
flow[sink_9,sink_18] 1.0548788939898854e+02
flow[sink_26,sink_4] 3.7636008647418635e+01
flow[sink_4,sink_20] 0
flow[sink_18,sink_6] 8.9133722732321871e+01
flow[sink_25,innode_8] -1.7085557199101015e+02
flow[sink_6,sink_7] 4.0071222732321530e+01
flow[sink_6,sink_22] 3.2708333333333641e+01
flow[sink_7,sink_24] 38.4461323152414
flow[sink_22,sink_1] 1.6354166666666970e+01
flow[sink_24,sink_21] 2.2091965648574728e+01
flow[sink_21,sink_12] 5.73779898190806
flow[sink_7,sink_5] -14.7290762495863
flow[sink_5,sink_17] -3.1083242916252971e+01
flow[sink_17,sink_4] -2.1281841980752006e+01
flow[sink_17,sink_8] -2.6155567602166872e+01
flow[sink_3,sink_23] 16.3541666666697
flow[sink_8,sink_20] -4.2509734268833540e+01
flow[sink_25,sink_20] 5.8863900935500453e+01
flow[sink_25,sink_15] -7.7095292199488327e+01
flow[sink_15,sink_29] 0
flow[sink_29,sink_28] 1.6354166666667879e+01
flow[sink_29,sink_2] 1.0980362553282167e+02
flow[sink_2,sink_15] 93.449458866155
flow[sink_29,innode_7] -1.4251195886615619e+02
flow[innode_4,sink_19] 0
flow[sink_19,innode_3] 4.1416332607667528e+01
flow[innode_4,innode_5] 1.1757860145807678e+02
flow[sink_27,innode_5] -1.1757860145807678e+02
flow[sink_27,sink_19] 1.0122443479141010e+02
flow[sink_10,sink_11] 3.2708333333333641e+01
flow[sink_10,innode_2] -4.3453935517075422e+01
flow[sink_10,innode_3] -4.1416332607667528e+01
flow[innode_6,sink_25] 3.0994347914093510e+00
flow[sink_11,innode_1] 1.6354166666666970e+01
flow[sink_19,innode_2] 4.3453935517075422e+01
flow[source_3,innode_4] 1.1757860145807678e+02
flow[source_2,innode_7] 1.4251195886615619e+02
flow[sink_3,innode_8] 1.7085557199101015e+02
pressure[innode_1] 7.5334940845154691e+01
pressure[innode_2] 7.7783362115467227e+01
pressure[innode_3] 7.7691650336798460e+01
pressure[innode_4] 81.01325
pressure[innode_5] 8.0932373237978283e+01
pressure[innode_6] 7.3741084456861230e+01
pressure[innode_7] 81.01325
pressure[innode_8] 8.0332813628731188e+01
pressure[source_1] 81.01325
pressure[source_2] 81.01325
pressure[source_3] 81.01325
pressure[sink_1] 4.5766682500362407e+01
pressure[sink_2] 7.4420163634633809e+01
pressure[sink_3] 8.0332813628731188e+01
pressure[sink_4] 5.6572184115557604e+01
pressure[sink_5] 5.3443385368630153e+01
pressure[sink_6] 4.7867760110749778e+01
pressure[sink_7] 4.7317677737973625e+01
pressure[sink_8] 5.6745779805881462e+01
pressure[sink_9] 5.4064762140109423e+01
pressure[sink_10] 7.5486642152758236e+01
pressure[sink_11] 7.5334940845154691e+01
pressure[sink_12] 1.0132500000000007e+00
pressure[sink_13] 73.7581711229026
pressure[sink_14] 7.3792984999792267e+01
pressure[sink_15] 7.4115071747364809e+01
pressure[sink_16] 7.4313291010337011e+01
pressure[sink_17] 55.758862289758
pressure[sink_18] 5.0247895893671490e+01
pressure[sink_19] 7.7783362115467227e+01
pressure[sink_20] 5.9708110458504230e+01
pressure[sink_21] 3.0550729087243873e+00
pressure[sink_22] 4.6830451642717414e+01
pressure[sink_23] 80.1680956170714
pressure[sink_24] 3.2997209023983
pressure[sink_25] 7.3741084456861230e+01
pressure[sink_26] 6.1357323661329190e+01
pressure[sink_27] 7.9956688107770859e+01
pressure[sink_28] 7.6906331116670586e+01
pressure[sink_29] 7.7201613390287761e+01
interdiction[source_1,sink_3] 0
interdiction[innode_1,sink_16] 0
interdiction[innode_6,sink_13] 0
interdiction[sink_13,sink_14] 0
interdiction[sink_14,sink_10] 0
interdiction[sink_25,sink_26] 0
interdiction[sink_26,sink_9] 0
interdiction[sink_9,sink_18] 0
interdiction[sink_26,sink_4] 0
interdiction[sink_4,sink_20] 1
interdiction[sink_18,sink_6] 0
interdiction[sink_25,innode_8] 0
interdiction[sink_6,sink_7] 0
interdiction[sink_6,sink_22] 0
interdiction[sink_7,sink_24] 0
interdiction[sink_22,sink_1] 0
interdiction[sink_24,sink_21] 0
interdiction[sink_21,sink_12] 0
interdiction[sink_7,sink_5] 0
interdiction[sink_5,sink_17] 0
interdiction[sink_17,sink_4] 0
interdiction[sink_17,sink_8] 0
interdiction[sink_3,sink_23] 0
interdiction[sink_8,sink_20] 0
interdiction[sink_25,sink_20] 0
interdiction[sink_25,sink_15] 0
interdiction[sink_15,sink_29] 1
interdiction[sink_29,sink_28] 0
interdiction[sink_29,sink_2] 0
interdiction[sink_2,sink_15] 0
interdiction[sink_29,innode_7] 0
interdiction[innode_4,sink_19] 1
interdiction[sink_19,innode_3] 0
interdiction[innode_4,innode_5] 0
interdiction[sink_27,innode_5] 0
interdiction[sink_27,sink_19] 0
interdiction[sink_10,sink_11] 0
interdiction[sink_10,innode_2] 0
interdiction[sink_10,innode_3] 0
interdiction[innode_6,sink_25] 0
interdiction[sink_11,innode_1] 0
interdiction[sink_19,innode_2] 0
interdiction[source_3,innode_4] 0
interdiction[source_2,innode_7] 0
interdiction[sink_3,innode_8] 0
WCcheckFlow[source_1,sink_3] 39
WCcheckFlow[innode_1,sink_16] 1
WCcheckFlow[innode_6,sink_13] 13
WCcheckFlow[sink_13,sink_14] 12
WCcheckFlow[sink_14,sink_10] 11
WCcheckFlow[sink_25,sink_26] 15
WCcheckFlow[sink_26,sink_9] 13
WCcheckFlow[sink_9,sink_18] 12
WCcheckFlow[sink_26,sink_4] 1
WCcheckFlow[sink_4,sink_20] 0
WCcheckFlow[sink_18,sink_6] 11
WCcheckFlow[sink_25,innode_8] -36
WCcheckFlow[sink_6,sink_7] 8
WCcheckFlow[sink_6,sink_22] 2
WCcheckFlow[sink_7,sink_24] 3
WCcheckFlow[sink_22,sink_1] 1
WCcheckFlow[sink_24,sink_21] 2
WCcheckFlow[sink_21,sink_12] 1
WCcheckFlow[sink_7,sink_5] 4
WCcheckFlow[sink_5,sink_17] 3
WCcheckFlow[sink_17,sink_4] 0
WCcheckFlow[sink_17,sink_8] 2
WCcheckFlow[sink_3,sink_23] 1
WCcheckFlow[sink_8,sink_20] 1
WCcheckFlow[sink_25,sink_20] 0
WCcheckFlow[sink_25,sink_15] 6
WCcheckFlow[sink_15,sink_29] 0
WCcheckFlow[sink_29,sink_28] 1
WCcheckFlow[sink_29,sink_2] -4
WCcheckFlow[sink_2,sink_15] -5
WCcheckFlow[sink_29,innode_7] 2
WCcheckFlow[innode_4,sink_19] 0
WCcheckFlow[sink_19,innode_3] -5
WCcheckFlow[innode_4,innode_5] -2
WCcheckFlow[sink_27,innode_5] 3
WCcheckFlow[sink_27,sink_19] -4
WCcheckFlow[sink_10,sink_11] 3
WCcheckFlow[sink_10,innode_2] 1
WCcheckFlow[sink_10,innode_3] 6
WCcheckFlow[innode_6,sink_25] -14
WCcheckFlow[sink_11,innode_1] 2
WCcheckFlow[sink_19,innode_2] 0
WCcheckFlow[source_3,innode_4] -1
WCcheckFlow[source_2,innode_7] -1
WCcheckFlow[sink_3,innode_8] 37
